c A SAT instance generated from a 3-CNF formula that had 24 clauses and 12 variables
p cnf 12 24
-9 -5 -6 0
12 -3 11 0
10 -5 3 0
-11 6 -5 0
10 -7 4 0
-7 2 -5 0
9 -5 8 0
1 -11 -3 0
8 3 -10 0
1 -12 5 0
-12 -5 -3 0
6 -12 -11 0
-3 5 -4 0
9 2 7 0
-12 -1 4 0
-11 -2 12 0
3 -9 10 0
1 -10 7 0
9 8 2 0
-6 8 12 0
10 -7 2 0
10 6 -1 0
10 6 8 0
-3 6 11 0
